self-compositions/words_1/words_308_SAT.qaiger
aag 89 24 0 1 65
18
32
42
8
6
12
44
38
10
26
20
16
2
22
46
24
4
40
48
28
30
14
34
36
179
50 31 29
52 51 33
54 52 12
56 52 10
58 52 8
60 50 32
62 61 53
64 63 6
66 30 28
68 67 51
70 68 4
72 69 5
74 73 71
76 74 2
78 76 28
80 79 71
82 62 7
84 83 65
86 84 81
88 87 65
90 53 9
92 91 59
94 92 89
96 95 59
98 53 11
100 99 57
102 100 97
104 103 57
106 53 13
108 107 55
110 108 105
112 111 55
114 52 14
116 53 15
118 117 115
120 118 113
122 119 112
124 123 121
126 109 104
128 127 111
130 128 45
132 75 29
134 132 3
136 135 79
138 137 131
140 138 125
142 129 44
144 85 80
146 145 87
148 147 143
150 101 96
152 151 103
154 93 88
156 155 95
158 157 153
160 158 148
162 160 140
164 121 115
166 52 17
168 53 16
170 169 167
172 170 164
174 171 165
176 175 173
178 177 162
i0 2 z[0]
i1 2 z[7]
i2 2 y[4]
i3 1 x[3]
i4 1 x[2]
i5 1 x[5]
i6 2 y[5]
i7 2 y[2]
i8 1 x[4]
i9 2 z[4]
i10 2 z[1]
i11 1 x[7]
i12 1 x[0]
i13 2 z[2]
i14 2 y[6]
i15 2 z[3]
i16 1 x[1]
i17 2 y[3]
i18 2 y[7]
i19 2 z[5]
i20 2 z[6]
i21 1 x[6]
i22 2 y[0]
i23 2 y[1]
o0 bool[0]
c
simplified
  !=
    subtract
      1 x
      >> 5
        2 z
    and
      << 5
        1
      2 y
