self-compositions/words_1/words_308_SAT.qaiger.qdimacs
p cnf 89 196
a 1 2 3 4 5 6 7 8 0
e 9 10 11 12 13 14 15 16 17 18 19 20 21 22 23 24 25 26 27 28 29 30 31 32 33 34 35 36 37 38 39 40 41 42 43 44 45 46 47 48 49 50 51 52 53 54 55 56 57 58 59 60 61 62 63 64 65 66 67 68 69 70 71 72 73 74 75 76 77 78 79 80 81 82 83 84 85 86 87 88 89 0
15 14 25 0
-15 -25 0
-14 -25 0
25 16 26 0
-25 -26 0
-16 -26 0
-26 -6 27 0
26 -27 0
6 -27 0
-26 -5 28 0
26 -28 0
5 -28 0
-26 -4 29 0
26 -29 0
4 -29 0
-25 -16 30 0
25 -30 0
16 -30 0
30 26 31 0
-30 -31 0
-26 -31 0
31 -3 32 0
-31 -32 0
3 -32 0
-15 -14 33 0
15 -33 0
14 -33 0
33 25 34 0
-33 -34 0
-25 -34 0
-34 -2 35 0
34 -35 0
2 -35 0
34 2 36 0
-34 -36 0
-2 -36 0
36 35 37 0
-36 -37 0
-35 -37 0
-37 -1 38 0
37 -38 0
1 -38 0
-38 -14 39 0
38 -39 0
14 -39 0
39 35 40 0
-39 -40 0
-35 -40 0
-31 3 41 0
31 -41 0
-3 -41 0
41 32 42 0
-41 -42 0
-32 -42 0
-42 40 43 0
42 -43 0
-40 -43 0
43 32 44 0
-43 -44 0
-32 -44 0
26 4 45 0
-26 -45 0
-4 -45 0
45 29 46 0
-45 -46 0
-29 -46 0
-46 44 47 0
46 -47 0
-44 -47 0
47 29 48 0
-47 -48 0
-29 -48 0
26 5 49 0
-26 -49 0
-5 -49 0
49 28 50 0
-49 -50 0
-28 -50 0
-50 48 51 0
50 -51 0
-48 -51 0
51 28 52 0
-51 -52 0
-28 -52 0
26 6 53 0
-26 -53 0
-6 -53 0
53 27 54 0
-53 -54 0
-27 -54 0
-54 52 55 0
54 -55 0
-52 -55 0
55 27 56 0
-55 -56 0
-27 -56 0
-26 -7 57 0
26 -57 0
7 -57 0
26 7 58 0
-26 -58 0
-7 -58 0
58 57 59 0
-58 -59 0
-57 -59 0
-59 56 60 0
59 -60 0
-56 -60 0
59 -56 61 0
-59 -61 0
56 -61 0
61 60 62 0
-61 -62 0
-60 -62 0
54 -52 63 0
-54 -63 0
52 -63 0
63 55 64 0
-63 -64 0
-55 -64 0
-64 22 65 0
64 -65 0
-22 -65 0
37 14 66 0
-37 -66 0
-14 -66 0
-66 1 67 0
66 -67 0
-1 -67 0
67 39 68 0
-67 -68 0
-39 -68 0
68 65 69 0
-68 -69 0
-65 -69 0
-69 62 70 0
69 -70 0
-62 -70 0
64 -22 71 0
-64 -71 0
22 -71 0
42 -40 72 0
-42 -72 0
40 -72 0
72 43 73 0
-72 -73 0
-43 -73 0
73 71 74 0
-73 -74 0
-71 -74 0
50 -48 75 0
-50 -75 0
48 -75 0
75 51 76 0
-75 -76 0
-51 -76 0
46 -44 77 0
-46 -77 0
44 -77 0
77 47 78 0
-77 -78 0
-47 -78 0
78 76 79 0
-78 -79 0
-76 -79 0
-79 -74 80 0
79 -80 0
74 -80 0
-80 -70 81 0
80 -81 0
70 -81 0
60 57 82 0
-60 -82 0
-57 -82 0
-26 8 83 0
26 -83 0
-8 -83 0
26 -8 84 0
-26 -84 0
8 -84 0
84 83 85 0
-84 -85 0
-83 -85 0
-85 -82 86 0
85 -86 0
82 -86 0
85 82 87 0
-85 -87 0
-82 -87 0
87 86 88 0
-87 -88 0
-86 -88 0
88 -81 89 0
-88 -89 0
81 -89 0
-89 0
